c Arquivo convertido de cubic_800.txt
p edge 800 1200
e 0 8
e 0 136
e 0 368
e 1 180
e 1 575
e 1 740
e 2 145
e 2 310
e 2 728
e 3 483
e 3 734
e 3 753
e 4 452
e 4 532
e 4 643
e 5 400
e 5 445
e 5 675
e 6 63
e 6 622
e 6 767
e 7 11
e 7 552
e 7 770
e 8 365
e 8 476
e 9 119
e 9 504
e 9 726
e 10 460
e 10 596
e 10 607
e 11 329
e 11 720
e 12 262
e 12 323
e 12 390
e 13 343
e 13 614
e 13 791
e 14 211
e 14 344
e 14 537
e 15 65
e 15 600
e 15 613
e 16 28
e 16 126
e 16 230
e 17 257
e 17 412
e 17 455
e 18 20
e 18 117
e 18 345
e 19 422
e 19 489
e 19 563
e 20 362
e 20 563
e 21 349
e 21 506
e 21 616
e 22 235
e 22 335
e 22 621
e 23 151
e 23 159
e 23 758
e 24 473
e 24 612
e 24 617
e 25 203
e 25 620
e 25 736
e 26 207
e 26 667
e 26 744
e 27 301
e 27 608
e 27 699
e 28 89
e 28 207
e 29 149
e 29 624
e 29 694
e 30 262
e 30 552
e 30 704
e 31 66
e 31 211
e 31 586
e 32 154
e 32 204
e 32 798
e 33 256
e 33 408
e 33 790
e 34 63
e 34 378
e 34 584
e 35 604
e 35 640
e 35 686
e 36 223
e 36 300
e 36 500
e 37 231
e 37 260
e 37 351
e 38 528
e 38 572
e 38 743
e 39 555
e 39 663
e 39 728
e 40 263
e 40 303
e 40 436
e 41 64
e 41 139
e 41 248
e 42 69
e 42 267
e 42 648
e 43 275
e 43 391
e 43 414
e 44 302
e 44 629
e 44 722
e 45 52
e 45 104
e 45 633
e 46 331
e 46 387
e 46 532
e 47 80
e 47 362
e 47 638
e 48 384
e 48 536
e 48 721
e 49 56
e 49 574
e 49 667
e 50 65
e 50 585
e 50 681
e 51 259
e 51 344
e 51 466
e 52 518
e 52 763
e 53 210
e 53 250
e 53 450
e 54 80
e 54 337
e 54 700
e 55 299
e 55 466
e 55 603
e 56 222
e 56 655
e 57 116
e 57 557
e 57 742
e 58 123
e 58 160
e 58 344
e 59 371
e 59 560
e 59 644
e 60 244
e 60 271
e 60 307
e 61 117
e 61 481
e 61 725
e 62 127
e 62 255
e 62 297
e 63 130
e 64 325
e 64 643
e 65 140
e 66 521
e 66 682
e 67 233
e 67 623
e 67 797
e 68 161
e 68 247
e 68 674
e 69 671
e 69 746
e 70 334
e 70 380
e 70 665
e 71 140
e 71 449
e 71 555
e 72 280
e 72 494
e 72 578
e 73 315
e 73 444
e 73 720
e 74 126
e 74 378
e 74 602
e 75 580
e 75 585
e 75 597
e 76 683
e 76 770
e 76 777
e 77 135
e 77 141
e 77 590
e 78 298
e 78 334
e 78 563
e 79 131
e 79 230
e 79 646
e 80 276
e 81 410
e 81 447
e 81 626
e 82 190
e 82 475
e 82 780
e 83 188
e 83 439
e 83 477
e 84 251
e 84 492
e 84 747
e 85 157
e 85 279
e 85 510
e 86 93
e 86 106
e 86 178
e 87 121
e 87 247
e 87 383
e 88 170
e 88 256
e 88 457
e 89 169
e 89 506
e 90 148
e 90 444
e 90 577
e 91 501
e 91 711
e 91 799
e 92 189
e 92 458
e 92 767
e 93 446
e 93 760
e 94 121
e 94 143
e 94 696
e 95 174
e 95 363
e 95 792
e 96 392
e 96 553
e 96 579
e 97 181
e 97 213
e 97 336
e 98 576
e 98 601
e 98 751
e 99 511
e 99 570
e 99 701
e 100 192
e 100 252
e 100 750
e 101 227
e 101 492
e 101 718
e 102 302
e 102 333
e 102 666
e 103 125
e 103 216
e 103 235
e 104 577
e 104 607
e 105 340
e 105 637
e 105 703
e 106 165
e 106 591
e 107 111
e 107 495
e 107 588
e 108 224
e 108 370
e 108 447
e 109 152
e 109 714
e 109 776
e 110 220
e 110 268
e 110 610
e 111 513
e 111 666
e 112 219
e 112 454
e 112 582
e 113 273
e 113 363
e 113 553
e 114 129
e 114 655
e 114 779
e 115 192
e 115 228
e 115 759
e 116 168
e 116 595
e 117 450
e 118 516
e 118 706
e 118 797
e 119 320
e 119 476
e 120 383
e 120 481
e 120 583
e 121 567
e 122 161
e 122 190
e 122 359
e 123 749
e 123 781
e 124 321
e 124 656
e 124 702
e 125 226
e 125 520
e 126 625
e 127 639
e 127 658
e 128 226
e 128 407
e 128 773
e 129 324
e 129 654
e 130 457
e 130 510
e 131 424
e 131 493
e 132 174
e 132 530
e 132 677
e 133 221
e 133 405
e 133 514
e 134 149
e 134 362
e 134 727
e 135 554
e 135 738
e 136 523
e 136 705
e 137 166
e 137 233
e 137 662
e 138 279
e 138 581
e 138 782
e 139 482
e 139 771
e 140 651
e 141 184
e 141 291
e 142 493
e 142 665
e 142 679
e 143 578
e 143 690
e 144 202
e 144 585
e 144 657
e 145 324
e 145 775
e 146 164
e 146 171
e 146 290
e 147 281
e 147 541
e 147 766
e 148 206
e 148 303
e 149 175
e 150 173
e 150 272
e 150 445
e 151 167
e 151 168
e 152 215
e 152 247
e 153 311
e 153 590
e 153 755
e 154 436
e 154 466
e 155 188
e 155 418
e 155 731
e 156 239
e 156 701
e 156 793
e 157 317
e 157 480
e 158 619
e 158 748
e 158 762
e 159 286
e 159 680
e 160 210
e 160 312
e 161 776
e 162 305
e 162 361
e 162 481
e 163 258
e 163 428
e 163 464
e 164 269
e 164 786
e 165 346
e 165 467
e 166 416
e 166 497
e 167 183
e 167 295
e 168 523
e 169 504
e 169 716
e 170 291
e 170 536
e 171 256
e 171 364
e 172 420
e 172 483
e 172 659
e 173 246
e 173 796
e 174 672
e 175 370
e 175 379
e 176 537
e 176 732
e 176 757
e 177 350
e 177 591
e 177 689
e 178 179
e 178 677
e 179 183
e 179 330
e 180 380
e 180 472
e 181 494
e 181 661
e 182 406
e 182 429
e 182 730
e 183 398
e 184 741
e 184 794
e 185 278
e 185 710
e 185 717
e 186 217
e 186 373
e 186 660
e 187 478
e 187 542
e 187 731
e 188 499
e 189 478
e 189 692
e 190 782
e 191 420
e 191 544
e 191 601
e 192 480
e 193 298
e 193 355
e 193 793
e 194 215
e 194 533
e 194 759
e 195 297
e 195 545
e 195 627
e 196 290
e 196 321
e 196 559
e 197 367
e 197 437
e 197 687
e 198 313
e 198 366
e 198 374
e 199 409
e 199 716
e 199 784
e 200 270
e 200 593
e 200 703
e 201 393
e 201 435
e 201 749
e 202 660
e 202 790
e 203 448
e 203 605
e 204 339
e 204 771
e 205 384
e 205 504
e 205 527
e 206 756
e 206 763
e 207 717
e 208 226
e 208 542
e 208 606
e 209 437
e 209 663
e 209 780
e 210 281
e 211 372
e 212 293
e 212 407
e 212 538
e 213 467
e 213 637
e 214 284
e 214 721
e 214 761
e 215 710
e 216 249
e 216 310
e 217 618
e 217 768
e 218 456
e 218 674
e 218 684
e 219 264
e 219 701
e 220 364
e 220 620
e 221 334
e 221 692
e 222 446
e 222 606
e 223 735
e 223 737
e 224 644
e 224 789
e 225 528
e 225 642
e 225 798
e 227 311
e 227 774
e 228 433
e 228 487
e 229 429
e 229 753
e 229 757
e 230 421
e 231 312
e 231 460
e 232 709
e 232 742
e 232 747
e 233 549
e 234 439
e 234 519
e 234 693
e 235 664
e 236 306
e 236 649
e 236 695
e 237 366
e 237 522
e 237 786
e 238 359
e 238 530
e 238 557
e 239 554
e 239 671
e 240 470
e 240 554
e 240 592
e 241 496
e 241 754
e 241 794
e 242 471
e 242 613
e 242 694
e 243 654
e 243 778
e 243 795
e 244 280
e 244 469
e 245 306
e 245 385
e 245 737
e 246 403
e 246 614
e 248 393
e 248 655
e 249 388
e 249 715
e 250 264
e 250 283
e 251 288
e 251 503
e 252 396
e 252 792
e 253 443
e 253 486
e 253 491
e 254 547
e 254 552
e 254 567
e 255 441
e 255 531
e 257 354
e 257 622
e 258 776
e 258 778
e 259 669
e 259 685
e 260 405
e 260 406
e 261 320
e 261 482
e 261 653
e 262 549
e 263 611
e 263 747
e 264 414
e 265 329
e 265 735
e 265 765
e 266 332
e 266 529
e 266 571
e 267 328
e 267 599
e 268 396
e 268 463
e 269 427
e 269 487
e 270 691
e 270 740
e 271 465
e 271 650
e 272 312
e 272 392
e 273 412
e 273 650
e 274 355
e 274 636
e 274 657
e 275 534
e 275 681
e 276 697
e 276 699
e 277 350
e 277 359
e 277 592
e 278 525
e 278 651
e 279 351
e 280 536
e 281 483
e 282 357
e 282 455
e 282 615
e 283 614
e 283 758
e 284 535
e 284 702
e 285 627
e 285 657
e 285 686
e 286 507
e 286 611
e 287 540
e 287 733
e 287 789
e 288 454
e 288 589
e 289 299
e 289 442
e 289 517
e 290 710
e 291 368
e 292 369
e 292 661
e 292 702
e 293 605
e 293 750
e 294 413
e 294 633
e 294 696
e 295 508
e 295 617
e 296 609
e 296 703
e 296 708
e 297 361
e 298 548
e 299 670
e 300 357
e 300 451
e 301 410
e 301 544
e 302 394
e 303 560
e 304 326
e 304 354
e 304 530
e 305 451
e 305 781
e 306 549
e 307 381
e 307 577
e 308 571
e 308 627
e 308 631
e 309 329
e 309 390
e 309 575
e 310 570
e 311 591
e 313 434
e 313 599
e 314 452
e 314 458
e 314 569
e 315 348
e 315 438
e 316 489
e 316 578
e 316 579
e 317 437
e 317 741
e 318 477
e 318 522
e 318 588
e 319 379
e 319 581
e 319 798
e 320 566
e 321 403
e 322 546
e 322 623
e 322 668
e 323 622
e 323 781
e 324 360
e 325 541
e 325 736
e 326 394
e 326 667
e 327 410
e 327 698
e 327 704
e 328 645
e 328 775
e 330 426
e 330 526
e 331 335
e 331 626
e 332 544
e 332 615
e 333 424
e 333 643
e 335 388
e 336 557
e 336 711
e 337 420
e 337 531
e 338 689
e 338 734
e 338 792
e 339 358
e 339 785
e 340 600
e 340 618
e 341 473
e 341 673
e 341 718
e 342 463
e 342 500
e 342 687
e 343 356
e 343 568
e 345 688
e 345 697
e 346 434
e 346 619
e 347 670
e 347 675
e 347 769
e 348 540
e 348 754
e 349 464
e 349 679
e 350 516
e 351 561
e 352 630
e 352 755
e 352 785
e 353 431
e 353 678
e 353 727
e 354 440
e 355 618
e 356 507
e 356 562
e 357 476
e 358 365
e 358 759
e 360 491
e 360 780
e 361 717
e 363 562
e 364 427
e 365 611
e 366 403
e 367 384
e 367 452
e 368 401
e 369 512
e 369 665
e 370 498
e 371 430
e 371 520
e 372 509
e 372 543
e 373 401
e 373 558
e 374 725
e 374 727
e 375 405
e 375 672
e 375 784
e 376 445
e 376 489
e 376 785
e 377 474
e 377 762
e 377 788
e 378 778
e 379 423
e 380 726
e 381 558
e 381 616
e 382 556
e 382 648
e 382 713
e 383 467
e 385 461
e 385 499
e 386 402
e 386 425
e 386 498
e 387 430
e 387 699
e 388 471
e 389 423
e 389 461
e 389 602
e 390 598
e 391 613
e 391 641
e 392 435
e 393 640
e 394 787
e 395 513
e 395 678
e 395 713
e 396 606
e 397 573
e 397 593
e 397 758
e 398 429
e 398 755
e 399 404
e 399 511
e 399 676
e 400 463
e 400 543
e 401 658
e 402 424
e 402 515
e 404 598
e 404 648
e 406 708
e 407 645
e 408 431
e 408 661
e 409 465
e 409 799
e 411 565
e 411 635
e 411 761
e 412 708
e 413 430
e 413 628
e 414 599
e 415 673
e 415 732
e 415 786
e 416 490
e 416 569
e 417 707
e 417 746
e 417 784
e 418 421
e 418 432
e 419 433
e 419 628
e 419 692
e 421 524
e 422 560
e 422 653
e 423 709
e 425 455
e 425 671
e 426 693
e 426 797
e 427 468
e 428 472
e 428 681
e 431 715
e 432 777
e 432 783
e 433 538
e 434 766
e 435 479
e 436 791
e 438 464
e 438 691
e 439 674
e 440 635
e 440 670
e 441 509
e 441 547
e 442 636
e 442 723
e 443 634
e 443 672
e 444 763
e 446 556
e 447 760
e 448 539
e 448 587
e 449 576
e 449 796
e 450 592
e 451 636
e 453 499
e 453 526
e 453 748
e 454 719
e 456 550
e 456 567
e 457 553
e 458 460
e 459 507
e 459 574
e 459 743
e 461 546
e 462 543
e 462 607
e 462 783
e 465 644
e 468 584
e 468 685
e 469 551
e 469 745
e 470 767
e 470 788
e 471 479
e 472 551
e 473 539
e 474 593
e 474 770
e 475 505
e 475 723
e 477 685
e 478 664
e 479 501
e 480 539
e 482 799
e 484 691
e 484 700
e 484 720
e 485 700
e 485 715
e 485 794
e 486 641
e 486 774
e 487 576
e 488 509
e 488 662
e 488 694
e 490 750
e 490 752
e 491 497
e 492 629
e 493 634
e 494 638
e 495 642
e 495 793
e 496 652
e 496 729
e 497 753
e 498 669
e 500 522
e 501 760
e 502 571
e 502 579
e 502 712
e 503 580
e 503 769
e 505 646
e 505 706
e 506 628
e 508 642
e 508 795
e 510 764
e 511 718
e 512 651
e 512 757
e 513 689
e 514 517
e 514 724
e 515 573
e 515 596
e 516 705
e 517 745
e 518 565
e 518 594
e 519 548
e 519 650
e 520 684
e 521 612
e 521 790
e 523 756
e 524 582
e 524 698
e 525 564
e 525 570
e 526 646
e 527 729
e 527 752
e 528 709
e 529 581
e 529 714
e 531 791
e 532 558
e 533 603
e 533 764
e 534 624
e 534 676
e 535 540
e 535 630
e 537 587
e 538 680
e 541 608
e 542 638
e 545 659
e 545 751
e 546 652
e 547 690
e 548 550
e 550 663
e 551 796
e 555 761
e 556 605
e 559 598
e 559 765
e 561 619
e 561 633
e 562 652
e 564 630
e 564 639
e 565 788
e 566 609
e 566 654
e 568 779
e 568 782
e 569 695
e 572 711
e 572 716
e 573 724
e 574 704
e 575 705
e 580 783
e 582 777
e 583 649
e 583 712
e 584 664
e 586 658
e 586 662
e 587 730
e 588 621
e 589 615
e 589 698
e 590 688
e 594 679
e 594 722
e 595 686
e 595 744
e 596 601
e 597 645
e 597 744
e 600 774
e 602 713
e 603 604
e 604 625
e 608 765
e 609 733
e 610 656
e 610 764
e 612 639
e 616 726
e 617 754
e 620 740
e 621 728
e 623 682
e 624 634
e 625 647
e 626 668
e 629 719
e 631 751
e 631 775
e 632 695
e 632 712
e 632 772
e 635 737
e 637 697
e 640 707
e 641 647
e 647 668
e 649 768
e 653 707
e 656 660
e 659 795
e 666 749
e 669 739
e 673 675
e 676 738
e 677 690
e 678 739
e 680 722
e 682 772
e 683 769
e 683 773
e 684 687
e 688 738
e 693 787
e 696 724
e 706 739
e 714 752
e 719 723
e 721 762
e 725 735
e 729 743
e 730 746
e 731 772
e 732 741
e 733 787
e 734 756
e 736 768
e 742 779
e 745 771
e 748 789
e 766 773
